n=214;
k_min=7;
k_max=7;
M=[| 144, 139, 160, 122, 143, 122, 166
 | 151, 137, 155, 124, 149, 118, 163
 | 151, 138, 153, 123, 149, 118, 163
 | 148, 139, 156, 123, 146, 119, 164
 | 150, 139, 154, 123, 147, 119, 164
 | 148, 140, 153, 124, 147, 119, 164
 | 150, 139, 155, 122, 147, 119, 164
 | 150, 140, 154, 122, 146, 120, 164
 | 147, 137, 158, 124, 146, 118, 166
 | 148, 141, 155, 121, 145, 120, 166
 | 149, 141, 152, 123, 147, 120, 164
 | 147, 142, 155, 121, 144, 121, 165
 | 150, 140, 152, 123, 147, 119, 164
 | 149, 142, 154, 122, 145, 121, 164
 | 148, 143, 154, 122, 144, 122, 164
 | 149, 142, 154, 122, 145, 121, 164
 | 147, 143, 155, 121, 143, 122, 165
 | 143, 140, 166, 122, 141, 123, 161
 | 146, 139, 161, 121, 142, 121, 166
 | 148, 141, 155, 122, 145, 120, 166
 | 147, 142, 156, 122, 144, 121, 164
 | 146, 141, 166, 121, 141, 122, 159
 | 147, 143, 157, 122, 143, 122, 165
 | 148, 142, 155, 121, 144, 121, 166
 | 149, 140, 156, 122, 145, 120, 164
 | 148, 142, 156, 122, 144, 121, 165
 | 148, 140, 156, 122, 145, 119, 165
 | 149, 142, 155, 122, 145, 120, 165
 | 148, 143, 154, 122, 144, 122, 164
 | 148, 141, 156, 122, 145, 120, 165
 | 147, 143, 155, 121, 143, 122, 165
 | 149, 142, 154, 121, 144, 121, 164
 | 148, 142, 155, 122, 144, 121, 164
 | 149, 144, 153, 122, 144, 122, 163
 | 147, 143, 156, 121, 143, 122, 165
 | 148, 141, 157, 122, 144, 120, 165
 | 146, 139, 160, 124, 144, 121, 163
 | 147, 143, 155, 121, 143, 121, 165
 | 143, 142, 166, 121, 139, 125, 160
 | 143, 142, 166, 121, 139, 125, 160
 | 147, 143, 156, 121, 143, 122, 166
 | 148, 143, 154, 121, 143, 122, 165
 | 148, 141, 157, 122, 144, 120, 165
 | 143, 142, 164, 121, 139, 127, 160
 | 147, 143, 156, 121, 143, 122, 164
 | 145, 141, 161, 123, 142, 122, 164
 | 148, 142, 158, 121, 143, 122, 163
 | 143, 143, 164, 122, 138, 127, 160
 | 142, 145, 163, 121, 137, 129, 159
 | 146, 140, 160, 123, 142, 121, 164
 | 143, 144, 162, 122, 138, 130, 159
 | 145, 142, 160, 121, 140, 122, 166
 | 149, 143, 159, 121, 141, 122, 162
 | 148, 144, 159, 121, 140, 123, 162
 | 149, 143, 159, 120, 141, 122, 162
 | 149, 147, 154, 120, 139, 125, 162
 | 149, 141, 155, 122, 145, 120, 164
 | 148, 142, 155, 122, 145, 120, 165
 | 150, 138, 155, 123, 148, 119, 164
 | 149, 139, 156, 122, 146, 119, 165
 | 148, 141, 159, 120, 143, 122, 163
 | 146, 140, 160, 124, 145, 122, 161
 | 143, 142, 166, 121, 139, 125, 161
 | 143, 142, 165, 122, 139, 126, 160
 | 143, 143, 165, 120, 139, 126, 161
 | 144, 142, 163, 120, 140, 124, 163
 | 143, 145, 162, 120, 137, 128, 160
 | 143, 146, 162, 120, 138, 128, 161
 | 143, 145, 162, 120, 138, 128, 161
 | 142, 146, 162, 121, 137, 130, 159
 | 148, 136, 155, 126, 149, 116, 166
 | 146, 138, 158, 124, 146, 119, 166
 | 150, 139, 153, 124, 149, 118, 164
 | 150, 138, 154, 124, 149, 118, 164
 | 150, 139, 153, 124, 148, 118, 165
 | 150, 139, 153, 123, 148, 118, 165
 | 148, 138, 155, 124, 148, 118, 166
 | 149, 139, 154, 123, 147, 118, 166
 | 152, 137, 155, 123, 148, 118, 163
 | 148, 140, 153, 125, 148, 119, 164
 | 148, 140, 153, 126, 148, 119, 164
 | 151, 139, 153, 123, 148, 118, 164
 | 149, 138, 155, 123, 147, 118, 166
 | 149, 139, 154, 123, 147, 118, 165
 | 150, 136, 151, 131, 154, 116, 159
 | 149, 139, 156, 123, 146, 119, 164
 | 151, 139, 153, 122, 147, 118, 166
 | 149, 138, 155, 123, 147, 118, 166
 | 149, 140, 154, 123, 147, 119, 165
 | 149, 142, 152, 124, 147, 120, 164
 | 144, 142, 160, 122, 142, 123, 163
 | 149, 141, 154, 122, 146, 120, 164
 | 151, 141, 155, 121, 145, 121, 163
 | 151, 140, 154, 122, 146, 119, 164
 | 150, 142, 153, 123, 146, 120, 164
 | 147, 140, 158, 123, 144, 120, 164
 | 144, 143, 160, 121, 141, 123, 164
 | 147, 147, 153, 121, 141, 125, 161
 | 149, 143, 154, 122, 144, 121, 163
 | 148, 143, 156, 121, 142, 121, 163
 | 149, 144, 155, 120, 141, 121, 166
 | 146, 148, 155, 122, 139, 126, 161
 | 149, 148, 156, 119, 138, 128, 160
 | 142, 148, 161, 125, 133, 138, 151
 | 143, 147, 166, 121, 133, 132, 154
 | 145, 156, 145, 128, 127, 155, 141
 | 144, 149, 145, 134, 133, 149, 142
 | 142, 152, 146, 131, 129, 155, 141
 | 151, 166, 150, 121, 127, 140, 143
 | 151, 156, 150, 122, 131, 141, 146
 | 143, 153, 144, 126, 127, 165, 140
 | 142, 152, 144, 126, 127, 166, 140
 | 143, 156, 146, 126, 126, 158, 141
 | 148, 138, 157, 123, 147, 119, 165
 | 146, 140, 158, 123, 145, 120, 164
 | 147, 139, 158, 123, 146, 119, 165
 | 146, 139, 157, 123, 146, 119, 165
 | 148, 137, 155, 126, 149, 118, 163
 | 148, 138, 155, 124, 148, 118, 164
 | 149, 137, 155, 124, 148, 118, 165
 | 147, 140, 158, 123, 145, 120, 164
 | 149, 140, 153, 124, 147, 119, 165
 | 149, 139, 155, 123, 147, 119, 165
 | 149, 138, 154, 124, 148, 117, 166
 | 148, 141, 157, 122, 145, 120, 165
 | 146, 141, 157, 123, 144, 121, 164
 | 147, 142, 157, 122, 144, 121, 164
 | 147, 147, 166, 120, 135, 125, 157
 | 149, 146, 162, 121, 136, 124, 157
 | 150, 154, 159, 122, 131, 131, 150
 | 150, 158, 155, 121, 128, 137, 148
 | 145, 159, 149, 126, 126, 150, 141
 | 147, 138, 157, 123, 147, 119, 166
 | 145, 137, 158, 125, 146, 119, 166
 | 148, 139, 156, 122, 147, 118, 166
 | 146, 139, 158, 122, 145, 120, 166
 | 148, 141, 155, 121, 145, 120, 166
 | 148, 140, 154, 123, 147, 119, 166
 | 150, 140, 151, 123, 148, 119, 166
 | 149, 140, 152, 123, 147, 118, 166
 | 148, 138, 155, 124, 147, 118, 166
 | 148, 140, 156, 121, 145, 119, 166
 | 149, 141, 154, 123, 146, 120, 164
 | 148, 140, 154, 123, 147, 118, 166
 | 148, 143, 156, 121, 142, 122, 163
 | 146, 142, 158, 122, 144, 122, 163
 | 149, 140, 158, 121, 144, 121, 163
 | 149, 139, 156, 122, 146, 119, 165
 | 148, 140, 157, 122, 145, 119, 166
 | 146, 144, 154, 123, 144, 123, 162
 | 147, 140, 156, 124, 146, 120, 164
 | 143, 141, 166, 121, 139, 125, 161
 | 149, 141, 158, 119, 142, 123, 163
 | 149, 139, 156, 123, 146, 119, 164
 | 146, 143, 158, 122, 143, 122, 163
 | 149, 142, 156, 121, 144, 121, 164
 | 148, 141, 158, 122, 144, 120, 164
 | 143, 142, 165, 121, 139, 126, 160
 | 146, 140, 159, 123, 143, 121, 164
 | 145, 140, 159, 124, 143, 121, 164
 | 145, 141, 159, 122, 142, 121, 166
 | 148, 140, 159, 119, 142, 122, 166
 | 143, 141, 164, 123, 141, 123, 161
 | 145, 136, 146, 143, 152, 123, 150
 | 150, 151, 157, 121, 133, 130, 155
 | 145, 161, 150, 120, 128, 143, 149
 | 143, 166, 147, 120, 127, 145, 147
 | 151, 156, 148, 123, 128, 145, 145
 | 155, 151, 149, 126, 132, 136, 148
 | 153, 159, 149, 122, 127, 141, 144
 | 149, 166, 148, 122, 124, 146, 142
 | 141, 137, 141, 166, 143, 127, 141
 | 141, 137, 141, 165, 144, 128, 141
 | 148, 164, 148, 123, 125, 148, 142
 | 151, 147, 157, 125, 135, 128, 153
 | 152, 157, 151, 121, 128, 142, 146
 | 149, 147, 162, 119, 137, 125, 157
 | 148, 147, 166, 117, 135, 126, 157
 | 150, 147, 160, 121, 139, 124, 156
 | 150, 147, 162, 120, 138, 124, 156
 | 166, 140, 150, 123, 145, 120, 152
 | 155, 155, 154, 123, 134, 129, 147
 | 156, 159, 151, 122, 129, 136, 144
 | 151, 161, 150, 122, 129, 139, 144
 | 153, 144, 146, 134, 145, 129, 146
 | 148, 133, 145, 136, 166, 116, 152
 | 146, 135, 148, 138, 158, 119, 154
 | 147, 141, 159, 121, 142, 120, 166
 | 147, 146, 155, 131, 138, 127, 152
 | 151, 144, 151, 132, 143, 125, 151
 | 154, 145, 156, 122, 142, 123, 155
 | 162, 149, 149, 127, 138, 126, 146
 | 165, 148, 149, 125, 136, 127, 146
 | 165, 147, 148, 127, 140, 125, 145
 | 163, 147, 148, 127, 140, 125, 146
 | 166, 148, 149, 125, 136, 126, 146
 | 166, 149, 149, 124, 134, 128, 146
 | 162, 149, 149, 126, 137, 126, 146
 | 164, 149, 149, 126, 136, 126, 146
 | 161, 149, 149, 128, 138, 126, 146
 | 161, 147, 149, 128, 140, 125, 146
 | 148, 147, 144, 136, 140, 134, 147
 | 161, 147, 149, 128, 140, 126, 147
 | 164, 146, 148, 128, 141, 125, 145
 | 162, 149, 149, 127, 139, 126, 146
 | 166, 148, 148, 126, 139, 125, 145
 | 166, 148, 148, 126, 139, 125, 145
 | 154, 140, 144, 139, 150, 125, 145
 | 162, 151, 150, 125, 135, 128, 145
 | 166, 148, 149, 126, 136, 126, 145
 | 165, 147, 148, 127, 140, 125, 145
 | 162, 147, 148, 127, 141, 126, 146
 | 162, 147, 148, 127, 140, 126, 147
 | 162, 147, 148, 127, 140, 127, 147 |];
 P=[7, 7, 7, 7, 7, 7, 7, 7, 7, 7, 7, 7, 7, 7, 7, 7, 7, 3, 7, 7, 7, 3, 7, 7, 7, 7, 7, 7, 7, 7, 7, 7, 7, 7, 7, 7, 7, 7, 3, 3, 7, 7, 7, 3, 7, 7, 7, 3, 3, 7, 3, 7, 7, 7, 7, 7, 7, 7, 7, 7, 7, 7, 3, 3, 3, 3, 3, 3, 3, 3, 7, 7, 7, 7, 7, 7, 7, 7, 7, 7, 7, 7, 7, 7, 7, 7, 7, 7, 7, 7, 7, 7, 7, 7, 7, 7, 7, 7, 7, 7, 7, 7, 7, 3, 3, 6, 6, 6, 2, 2, 6, 6, 6, 7, 7, 7, 7, 7, 7, 7, 7, 7, 7, 7, 7, 7, 7, 3, 3, 3, 2, 6, 7, 7, 7, 7, 7, 7, 7, 7, 7, 7, 7, 7, 7, 7, 7, 7, 7, 7, 7, 3, 7, 7, 7, 7, 7, 3, 7, 7, 7, 7, 3, 5, 3, 2, 2, 2, 2, 2, 2, 4, 4, 2, 3, 2, 3, 3, 3, 3, 1, 1, 2, 2, 1, 5, 5, 7, 3, 3, 1, 1, 1, 1, 1, 1, 1, 1, 1, 1, 1, 2, 1, 1, 1, 1, 1, 1, 1, 1, 1, 1, 1, 1 ];